-109.0 3.0 6.0 8.0 1.0 10.0 10.0 7.0 10.0 8.0 7.0 5.0 9.0 8.0 9.0 8.0 
3.0 -52.0 3.0 2.0 10.0 7.0 5.0 9.0 7.0 1.0 2.0 3.0 0.0 0.0 0.0 0.0 
6.0 3.0 -74.0 8.0 1.0 8.0 7.0 2.0 4.0 4.0 3.0 6.0 8.0 5.0 8.0 1.0 
8.0 2.0 8.0 -61.0 6.0 1.0 8.0 1.0 1.0 5.0 4.0 5.0 2.0 7.0 1.0 2.0 
1.0 10.0 1.0 6.0 -79.0 6.0 10.0 10.0 7.0 1.0 9.0 8.0 2.0 1.0 2.0 5.0 
10.0 7.0 8.0 1.0 6.0 -92.0 6.0 10.0 1.0 3.0 9.0 4.0 10.0 7.0 7.0 3.0 
10.0 5.0 7.0 8.0 10.0 6.0 -89.0 5.0 1.0 7.0 1.0 4.0 3.0 7.0 10.0 5.0 
7.0 9.0 2.0 1.0 10.0 10.0 5.0 -71.0 0.0 0.0 4.0 5.0 3.0 7.0 2.0 6.0 
10.0 7.0 4.0 1.0 7.0 1.0 1.0 0.0 -73.0 9.0 8.0 6.0 5.0 4.0 6.0 4.0 
8.0 1.0 4.0 5.0 1.0 3.0 7.0 0.0 9.0 -67.0 10.0 9.0 0.0 0.0 8.0 2.0 
7.0 2.0 3.0 4.0 9.0 9.0 1.0 4.0 8.0 10.0 -78.0 5.0 5.0 2.0 5.0 4.0 
5.0 3.0 6.0 5.0 8.0 4.0 4.0 5.0 6.0 9.0 5.0 -76.0 0.0 7.0 7.0 2.0 
9.0 0.0 8.0 2.0 2.0 10.0 3.0 3.0 5.0 0.0 5.0 0.0 -64.0 4.0 10.0 3.0 
8.0 0.0 5.0 7.0 1.0 7.0 7.0 7.0 4.0 0.0 2.0 7.0 4.0 -73.0 10.0 4.0 
9.0 0.0 8.0 1.0 2.0 7.0 10.0 2.0 6.0 8.0 5.0 7.0 10.0 10.0 -93.0 8.0 
8.0 0.0 1.0 2.0 5.0 3.0 5.0 6.0 4.0 2.0 4.0 2.0 3.0 4.0 8.0 -57.0 

